33D32945 STP File, STP Format Version 1.0

SECTION Comment
Name    "i080-315"
Creator "Cees Duin"
Remark  "Incidence graph"
END

SECTION Graph
Nodes 80
Edges 350
E 1 2 300
E 1 15 291
E 1 25 200
E 1 28 204
E 1 36 201
E 1 38 199
E 1 41 199
E 1 46 198
E 1 55 194
E 1 56 193
E 1 59 207
E 1 67 192
E 1 70 196
E 2 4 298
E 2 13 296
E 2 23 213
E 2 42 201
E 2 59 199
E 2 70 200
E 2 71 204
E 2 77 198
E 3 27 194
E 3 28 198
E 3 31 194
E 3 46 203
E 3 49 201
E 3 58 209
E 3 76 205
E 4 12 294
E 4 14 297
E 4 15 310
E 4 22 207
E 4 33 196
E 4 51 205
E 4 60 194
E 4 62 195
E 5 12 298
E 5 13 296
E 5 19 303
E 5 33 203
E 5 39 203
E 5 46 189
E 5 52 192
E 6 7 289
E 6 11 295
E 6 16 301
E 6 26 208
E 6 28 207
E 6 32 203
E 6 34 200
E 6 35 207
E 6 38 200
E 6 55 198
E 6 64 201
E 6 65 195
E 6 72 209
E 6 79 198
E 7 8 300
E 7 37 198
E 7 59 195
E 7 65 213
E 8 13 307
E 8 22 190
E 8 28 202
E 8 45 204
E 8 47 186
E 8 51 189
E 8 75 198
E 9 12 302
E 9 14 306
E 9 38 203
E 9 40 194
E 9 43 201
E 9 47 195
E 9 60 202
E 9 63 208
E 9 64 202
E 10 13 298
E 10 41 202
E 10 51 201
E 10 57 195
E 10 76 202
E 11 22 202
E 11 36 197
E 11 38 196
E 11 46 194
E 11 47 205
E 11 55 198
E 11 59 212
E 11 64 193
E 11 67 194
E 11 74 201
E 12 15 302
E 12 26 198
E 12 51 208
E 12 53 202
E 12 59 194
E 12 63 202
E 13 32 205
E 13 40 208
E 13 47 200
E 13 53 199
E 13 56 194
E 13 58 199
E 13 65 199
E 14 22 197
E 14 24 192
E 14 34 196
E 14 43 203
E 14 44 205
E 14 52 204
E 14 68 209
E 15 17 305
E 15 19 301
E 15 23 203
E 15 27 201
E 15 55 194
E 15 61 204
E 15 76 191
E 16 32 200
E 16 34 205
E 16 51 199
E 16 67 194
E 16 77 191
E 16 78 209
E 17 30 200
E 17 32 202
E 17 34 206
E 17 35 195
E 17 49 199
E 17 71 196
E 17 77 201
E 18 21 200
E 18 40 204
E 18 47 198
E 18 51 201
E 18 74 197
E 19 22 193
E 19 24 198
E 19 32 198
E 19 41 198
E 19 67 204
E 20 30 205
E 20 31 201
E 20 32 200
E 20 58 206
E 20 65 198
E 20 76 199
E 20 77 196
E 20 78 195
E 21 34 88
E 21 68 101
E 21 72 111
E 21 73 102
E 21 74 106
E 22 32 107
E 22 37 96
E 22 50 97
E 22 51 104
E 22 72 98
E 22 79 103
E 23 31 106
E 23 54 94
E 23 67 99
E 24 25 98
E 24 28 100
E 24 30 101
E 24 39 95
E 24 48 97
E 24 50 101
E 24 62 103
E 24 69 96
E 25 35 101
E 25 39 103
E 25 40 94
E 25 54 111
E 25 60 96
E 25 64 106
E 25 65 106
E 25 68 107
E 26 30 97
E 26 32 95
E 26 59 93
E 26 60 99
E 26 70 105
E 26 76 109
E 27 29 101
E 27 30 103
E 27 42 98
E 27 47 100
E 27 68 92
E 27 71 89
E 27 80 98
E 28 31 99
E 28 36 95
E 28 39 110
E 28 56 90
E 28 60 102
E 28 64 95
E 28 68 94
E 28 69 94
E 28 78 96
E 29 32 102
E 29 36 94
E 29 67 104
E 29 71 101
E 29 75 99
E 29 77 99
E 30 31 102
E 30 34 96
E 30 45 94
E 30 46 102
E 30 64 99
E 31 52 109
E 31 56 104
E 31 74 93
E 32 42 97
E 32 51 99
E 32 52 102
E 32 56 98
E 32 57 97
E 32 59 102
E 32 65 95
E 32 66 90
E 32 67 95
E 32 77 102
E 33 47 106
E 33 48 100
E 33 51 106
E 33 73 100
E 33 76 94
E 34 38 97
E 34 49 99
E 34 50 107
E 34 57 96
E 35 42 102
E 35 44 90
E 35 55 102
E 35 63 96
E 35 78 97
E 36 41 98
E 36 42 101
E 36 43 89
E 36 44 103
E 36 51 102
E 36 75 99
E 36 78 105
E 37 39 101
E 37 40 102
E 37 50 103
E 37 52 90
E 37 54 104
E 37 59 102
E 37 70 92
E 37 76 104
E 38 41 95
E 38 51 98
E 38 54 93
E 38 64 98
E 38 76 93
E 39 54 102
E 39 62 100
E 39 76 105
E 40 53 99
E 40 71 101
E 40 74 104
E 41 49 104
E 41 56 96
E 41 64 101
E 41 79 101
E 42 60 93
E 42 70 89
E 42 80 91
E 43 54 96
E 43 70 102
E 43 77 102
E 44 46 97
E 44 53 96
E 44 56 103
E 44 66 103
E 44 78 102
E 45 48 99
E 45 59 99
E 45 61 105
E 45 62 94
E 46 66 98
E 47 57 99
E 47 60 105
E 47 75 110
E 48 66 102
E 49 53 102
E 50 56 107
E 50 61 95
E 52 67 99
E 52 72 105
E 52 75 103
E 52 76 96
E 53 55 95
E 53 64 103
E 53 65 102
E 53 71 100
E 54 56 104
E 54 71 99
E 54 73 107
E 55 63 91
E 55 66 101
E 55 69 103
E 55 71 100
E 55 74 105
E 56 60 101
E 56 79 102
E 57 65 102
E 57 68 102
E 57 74 86
E 57 77 104
E 58 62 94
E 58 68 96
E 58 80 97
E 59 69 95
E 59 70 93
E 59 76 96
E 60 75 96
E 60 78 96
E 61 64 96
E 61 78 93
E 61 79 98
E 63 66 101
E 63 71 100
E 64 72 101
E 64 80 100
E 65 70 106
E 65 78 101
E 66 75 102
E 67 70 103
E 67 71 97
E 67 72 104
E 67 74 98
E 67 75 100
E 68 69 98
E 68 79 99
E 68 80 97
E 69 77 98
E 70 73 100
E 70 76 96
E 70 80 96
E 71 74 92
E 72 78 91
E 75 80 97
E 76 79 92
E 78 80 103
END

SECTION Terminals
Terminals 20
T 1
T 2
T 3
T 4
T 5
T 6
T 7
T 8
T 9
T 10
T 11
T 12
T 13
T 14
T 15
T 16
T 17
T 18
T 19
T 20
END

EOF
